unsat
(:added-eqs                   2777
 :arith-eq-adapter            107
 :arith-bound-propagations-lp 299
 :arith-branch                1208
 :arith-conflicts             1122
 :arith-cube-calls            534
 :arith-diseq                 1405
 :arith-fixed-eqs             898
 :arith-gcd-calls             2162
 :arith-gcd-conflict          17
 :arith-gomory-cuts           1435
 :arith-hnf-calls             10
 :arith-lower                 22817
 :arith-make-feasible         11065
 :arith-max-columns           101
 :arith-max-rows              56
 :arith-nla-propagate-bounds  4
 :arith-offset-eqs            285
 :arith-patches               2145
 :arith-patches-success       2
 :arith-upper                 32443
 :binary-propagations         37287
 :conflicts                   1130
 :decisions                   5964
 :del-clause                  2502
 :final-checks                2163
 :max-memory                  20.04
 :memory                      17.70
 :minimized-lits              140
 :mk-bool-var                 3304
 :mk-clause                   2609
 :mk-clause-binary            2224
 :num-allocs                  238574424
 :num-checks                  1
 :propagations                49507
 :restarts                    10
 :rlimit-count                423766
 :time                        0.74
 :total-time                  0.75)
